objective value:                                   -9
t_n_9                                               1 	(obj:-1)
t_n_224                                             1 	(obj:-1)
t_n_384                                             1 	(obj:-1)
t_n_525                                             1 	(obj:-1)
t_n_777                                             1 	(obj:-1)
t_n_802                                             1 	(obj:-1)
t_n_911                                             1 	(obj:-1)
t_n_941                                             1 	(obj:-1)
t_n_971                                             1 	(obj:-1)
